c ind 10 13 15 24 27 34 43 45 47 49 0
c ind 5 52 6 79 85 9 0
p cnf 126 411
-1 -2 11 0
-1 2 84 0
-100 -13 43 0
-100 -43 13 0
-101 -65 102 0
-101 65 105 0
-102 103 0
-102 33 0
-103 104 0
-103 33 0
-104 56 0
-104 92 0
-105 -73 89 0
-105 73 97 0
-106 -107 14 0
-106 107 84 0
-107 -21 108 0
-107 21 118 0
-108 -29 109 0
-108 29 112 0
-109 110 0
-109 33 0
-11 -12 14 0
-11 12 16 0
-110 111 0
-110 33 0
-111 33 0
-111 92 0
-112 -36 113 0
-112 36 118 0
-113 -39 114 0
-113 39 122 0
-114 -51 115 0
-114 51 118 0
-115 116 0
-115 33 0
-116 117 0
-116 33 0
-117 56 0
-117 92 0
-118 119 0
-118 63 0
-119 120 0
-119 62 0
-12 -13 9 0
-12 -9 13 0
-120 121 0
-120 60 0
-121 -13 45 0
-121 -45 13 0
-122 -65 123 0
-122 65 126 0
-123 124 0
-123 33 0
-124 125 0
-124 33 0
-125 33 0
-125 96 0
-126 -73 109 0
-126 73 118 0
-14 -13 15 0
-14 -15 13 0
-16 -17 19 0
-16 17 84 0
-17 18 0
-17 3 0
-18 -13 5 0
-18 -5 13 0
-19 -20 77 0
-19 20 86 0
-2 3 7 0
-20 -21 28 0
-20 21 57 0
-21 22 25 0
-22 -23 0
-23 -24 6 0
-23 -6 24 0
-25 -26 0
-26 -10 27 0
-26 -27 10 0
-28 -29 30 0
-28 29 35 0
-29 -10 13 0
-29 -13 10 0
-3 -4 0
-30 31 0
-30 33 0
-31 32 0
-31 33 0
-32 33 0
-33 -34 34 0
-34 0
-35 -36 38 0
-35 36 57 0
-36 22 0
-36 37 0
-37 -13 6 0
-37 -6 13 0
-38 -39 50 0
-38 39 64 0
-39 40 0
-39 48 0
-4 -5 6 0
-4 -6 5 0
-40 41 0
-40 46 0
-41 42 0
-41 44 0
-42 -34 43 0
-42 -43 34 0
-44 -34 45 0
-44 -45 34 0
-46 -34 47 0
-46 -47 34 0
-48 -34 49 0
-48 -49 34 0
-50 -51 53 0
-50 51 57 0
-51 -13 52 0
-51 -52 13 0
-53 33 0
-53 54 0
-54 33 0
-54 55 0
-55 33 0
-55 56 0
-56 -13 34 0
-56 -34 13 0
-57 58 0
-57 63 0
-58 59 0
-58 62 0
-59 60 0
-59 61 0
-60 -34 43 0
-60 -43 34 0
-61 -34 45 0
-61 -45 34 0
-62 -34 47 0
-62 -47 34 0
-63 -34 49 0
-63 -49 34 0
-64 -65 69 0
-64 65 72 0
-65 48 0
-65 66 0
-66 46 0
-66 67 0
-67 44 0
-67 68 0
-68 -13 43 0
-68 -43 13 0
-69 33 0
-69 70 0
-7 -8 0
-70 33 0
-70 71 0
-71 33 0
-71 56 0
-72 -73 30 0
-72 73 57 0
-73 48 0
-73 74 0
-74 46 0
-74 75 0
-75 42 0
-75 76 0
-76 -13 45 0
-76 -45 13 0
-77 -78 80 0
-77 78 84 0
-78 -13 79 0
-78 -79 13 0
-8 -10 9 0
-8 -9 10 0
-80 33 0
-80 81 0
-81 33 0
-81 82 0
-82 33 0
-82 83 0
-83 -15 34 0
-83 -34 15 0
-84 -15 85 0
-84 -85 15 0
-86 -87 80 0
-86 87 106 0
-87 -21 88 0
-87 21 97 0
-88 -29 89 0
-88 29 93 0
-89 33 0
-89 90 0
-90 33 0
-90 91 0
-91 33 0
-91 92 0
-92 -13 34 0
-92 -34 13 0
-93 -36 94 0
-93 36 97 0
-94 -39 95 0
-94 39 101 0
-95 -51 96 0
-95 51 97 0
-96 -13 13 0
-97 63 0
-97 98 0
-98 62 0
-98 99 0
-99 100 0
-99 61 0
1 -11 -84 0
1 -2 -11 0
1 0
1 2 -84 0
100 -13 -43 0
100 13 43 0
101 -102 -105 0
101 -65 -102 0
101 65 -105 0
102 -103 -33 0
103 -104 -33 0
104 -92 -56 0
105 -73 -89 0
105 -89 -97 0
105 73 -97 0
106 -107 -14 0
106 -14 -84 0
106 107 -84 0
107 -108 -118 0
107 -21 -108 0
107 21 -118 0
108 -109 -112 0
108 -29 -109 0
108 29 -112 0
109 -110 -33 0
11 -12 -14 0
11 -14 -16 0
11 12 -16 0
110 -111 -33 0
111 -33 -92 0
112 -113 -118 0
112 -36 -113 0
112 36 -118 0
113 -114 -122 0
113 -39 -114 0
113 39 -122 0
114 -115 -118 0
114 -51 -115 0
114 51 -118 0
115 -116 -33 0
116 -117 -33 0
117 -56 -92 0
118 -119 -63 0
119 -120 -62 0
12 -9 -13 0
12 9 13 0
120 -60 -121 0
121 -13 -45 0
121 13 45 0
122 -123 -126 0
122 -65 -123 0
122 65 -126 0
123 -124 -33 0
124 -125 -33 0
125 -33 -96 0
126 -109 -118 0
126 -73 -109 0
126 73 -118 0
13 0
14 -15 -13 0
14 15 13 0
16 -17 -19 0
16 -19 -84 0
16 17 -84 0
17 -3 -18 0
18 -5 -13 0
18 5 13 0
19 -20 -77 0
19 -77 -86 0
19 20 -86 0
2 -3 0
2 -7 0
20 -21 -28 0
20 -28 -57 0
20 21 -57 0
21 -22 0
21 -25 0
22 23 0
23 -6 -24 0
23 6 24 0
25 26 0
26 -10 -27 0
26 10 27 0
28 -29 -30 0
28 -30 -35 0
28 29 -35 0
29 -10 -13 0
29 10 13 0
3 4 0
30 -31 -33 0
31 -32 -33 0
32 -33 -33 0
33 -34 -34 0
33 34 34 0
35 -36 -38 0
35 -38 -57 0
35 36 -57 0
36 -22 -37 0
37 -6 -13 0
37 6 13 0
38 -39 -50 0
38 -50 -64 0
38 39 -64 0
39 -40 -48 0
4 -5 -6 0
4 5 6 0
40 -41 -46 0
41 -42 -44 0
42 -43 -34 0
42 43 34 0
44 -45 -34 0
44 45 34 0
46 -47 -34 0
46 47 34 0
48 -49 -34 0
48 49 34 0
50 -51 -53 0
50 -53 -57 0
50 51 -57 0
51 -52 -13 0
51 52 13 0
53 -54 -33 0
54 -55 -33 0
55 -56 -33 0
56 -34 -13 0
56 34 13 0
57 -58 -63 0
58 -59 -62 0
59 -60 -61 0
60 -34 -43 0
60 34 43 0
61 -34 -45 0
61 34 45 0
62 -34 -47 0
62 34 47 0
63 -34 -49 0
63 34 49 0
64 -65 -69 0
64 -69 -72 0
64 65 -72 0
65 -66 -48 0
66 -67 -46 0
67 -68 -44 0
68 -43 -13 0
68 43 13 0
69 -70 -33 0
7 8 0
70 -71 -33 0
71 -33 -56 0
72 -30 -57 0
72 -73 -30 0
72 73 -57 0
73 -74 -48 0
74 -75 -46 0
75 -42 -76 0
76 -45 -13 0
76 45 13 0
77 -78 -80 0
77 -80 -84 0
77 78 -84 0
78 -79 -13 0
78 79 13 0
8 -9 -10 0
8 9 10 0
80 -81 -33 0
81 -82 -33 0
82 -83 -33 0
83 -15 -34 0
83 15 34 0
84 -15 -85 0
84 15 85 0
86 -80 -106 0
86 -87 -80 0
86 87 -106 0
87 -21 -88 0
87 -88 -97 0
87 21 -97 0
88 -29 -89 0
88 -89 -93 0
88 29 -93 0
89 -90 -33 0
90 -91 -33 0
91 -92 -33 0
92 -13 -34 0
92 13 34 0
93 -36 -94 0
93 -94 -97 0
93 36 -97 0
94 -39 -95 0
94 -95 -101 0
94 39 -101 0
95 -51 -96 0
95 -96 -97 0
95 51 -97 0
96 -13 -13 0
96 13 13 0
97 -98 -63 0
98 -99 -62 0
99 -100 -61 0
